(set-logic QF_S)
(declare-fun var0 () String)
(declare-fun var1 () String)
(declare-fun var2 () String)
(declare-fun var3 () String)
(declare-fun var4 () Int)
(declare-fun var5 () Int)
(declare-fun var6 () Int)
(assert (str.contains var0 var1))
(assert (> (str.indexof var2 var3 var4) (str.len var3)))
(assert (not (> var5 22)))
(assert (str.prefixof (str.substr var3 159 var6) (str.replace var0 var2 var2)))
(check-sat)